(set-logic HORN)
(declare-fun k_35
             (Int Int Int Int Int Int (Array Int Bool) (Array Int Int))
             Bool)
(declare-fun k_31 (Int Int Int Int Int (Array Int Bool) (Array Int Int)) Bool)
(declare-fun k_25 (Int Int Int Int Int (Array Int Bool) (Array Int Int)) Bool)
(declare-fun k_29 (Int Int Int Int Int (Array Int Bool) (Array Int Int)) Bool)
(assert (forall ((EQ_6U Int)
         (GT_6W Int)
         (LT_6S Int)
         (prop_rkl Int)
         (True_6u Int)
         (VV_F1 Int)
         (lq_anf__dlP Int)
         (Prop (Array Int Bool))
         (cmp (Array Int Int)))
  (=> (and (k_29 EQ_6U GT_6W LT_6S True_6u prop_rkl Prop cmp)
           (= (select cmp EQ_6U) EQ_6U)
           (= (select cmp GT_6W) GT_6W)
           (= (select cmp LT_6S) LT_6S)
           (select Prop True_6u)
           (= lq_anf__dlP 0)
           true)
      (k_35 EQ_6U GT_6W LT_6S True_6u VV_F1 prop_rkl Prop cmp))))
(assert (forall ((EQ_6U Int)
         (GT_6W Int)
         (LT_6S Int)
         (True_6u Int)
         (lq_anf__dlO Int)
         (VV_F2 Int)
         (Prop (Array Int Bool))
         (cmp (Array Int Int)))
  (=> (and (k_31 EQ_6U GT_6W LT_6S True_6u lq_anf__dlO Prop cmp)
           (k_25 EQ_6U GT_6W LT_6S True_6u lq_anf__dlO Prop cmp)
           (= (select cmp EQ_6U) EQ_6U)
           (= (select cmp GT_6W) GT_6W)
           (= (select cmp LT_6S) LT_6S)
           (select Prop True_6u)
           (= lq_anf__dlO True_6u)
           (select Prop VV_F2)
           true)
      (k_29 EQ_6U GT_6W LT_6S True_6u VV_F2 Prop cmp))))
(assert (forall ((VV_F3 Int)
         (EQ_6U Int)
         (GT_6W Int)
         (LT_6S Int)
         (True_6u Int)
         (lq_anf__dlO Int)
         (Prop (Array Int Bool))
         (cmp (Array Int Int)))
  (=> (and (not (select Prop VV_F3))
           (k_31 EQ_6U GT_6W LT_6S True_6u lq_anf__dlO Prop cmp)
           (k_25 EQ_6U GT_6W LT_6S True_6u lq_anf__dlO Prop cmp)
           (= (select cmp EQ_6U) EQ_6U)
           (= (select cmp GT_6W) GT_6W)
           (= (select cmp LT_6S) LT_6S)
           (select Prop True_6u)
           (= lq_anf__dlO True_6u)
           (k_31 EQ_6U GT_6W LT_6S True_6u VV_F3 Prop cmp)
           (k_25 EQ_6U GT_6W LT_6S True_6u VV_F3 Prop cmp)
           (= VV_F3 True_6u)
           (= VV_F3 lq_anf__dlO)
           true)
      false)))
(assert (forall ((GT_6W Int)
         (LT_6S Int)
         (True_6u Int)
         (VV_F4 Int)
         (EQ_6U Int)
         (Prop (Array Int Bool))
         (cmp (Array Int Int)))
  (=> (and (= (select cmp EQ_6U) EQ_6U)
           (= (select cmp GT_6W) GT_6W)
           (= (select cmp LT_6S) LT_6S)
           (select Prop True_6u)
           (select Prop VV_F4)
           (= VV_F4 True_6u)
           true)
      (k_25 EQ_6U GT_6W LT_6S True_6u VV_F4 Prop cmp))))
(assert (forall ((GT_6W Int)
         (LT_6S Int)
         (True_6u Int)
         (VV_F4 Int)
         (EQ_6U Int)
         (Prop (Array Int Bool))
         (cmp (Array Int Int)))
  (=> (and (= (select cmp EQ_6U) EQ_6U)
           (= (select cmp GT_6W) GT_6W)
           (= (select cmp LT_6S) LT_6S)
           (select Prop True_6u)
           (select Prop VV_F4)
           (= VV_F4 True_6u)
           true)
      (k_31 EQ_6U GT_6W LT_6S True_6u VV_F4 Prop cmp))))

(check-sat)
